% demand
num_movements = 15;
loading_factor = [1150, 1700, 1600, 1050, 1500, 1700, 1150, 1550, 1350, 1050, 1100, 850, 1100, 1250, 1800];
pickup_time = [0, 0, 0, 0, 0, 2, 3, 4, 5, 5, 5, 6, 7, 8, 9];
delivery_time = [3, 2, 8, 5, 4, 4, 6, 5, 8, 7, 8, 8, 8, 9, 10];

% transporter definition
total_capacity = 7000;
num_decks = 3;
capacity = [3000, 1000, 3000];

% ways out of decks
num_ways_out = 1;
paths_out = array3d(decks, ways_out, decks, [
% ways out of deck d1
2, 3, 0, 

% ways out of deck d2
3, 0, 0, 

% ways out of deck d3
0, 0, 0,	

]);

